# Solution for model r10_t9_m3_1
# Finished Task: 9 / 9
# Makespan: 491.0, Total Distance: 82.0, Total Time: 0.8661
# R O S F
0 0 -1 0.0 0.0
1 1 13 34.0 34.0
2 2 -1 73.0 73.0
3 3 16 105.0 105.0
4 4 17 20.0 20.0
5 5 15 49.0 49.0
6 6 18 41.0 41.0
7 7 -1 84.0 84.0
8 8 -1 10.0 10.0
9 9 12 65.0 65.0
10 3 -1 415.0 449.0
11 3 14 321.0 345.0
12 9 -1 462.0 491.0
13 1 -1 408.0 436.0
14 3 10 387.0 415.0
15 5 -1 415.0 442.0
16 3 11 293.0 321.0
17 4 -1 471.0 491.0
18 6 -1 462.0 491.0
